c instance by G2
c solution = 10001010100
c Known solution cost is 621 
p cnf 11 30
w 5 30 70 86 46 83 62 45 61 59 74
5 11 4 0
8 -2 6 0
10 -6 7 0
-2 10 -6 0
-5 -10 9 0
-2 11 1 0
2 9 1 0
-5 -10 2 0
-11 2 4 0
7 -9 -5 0
8 -4 -1 0
9 5 -8 0
11 3 -8 0
-3 -9 2 0
8 -10 -3 0
9 6 -1 0
-2 -1 10 0
1 4 10 0
8 -10 7 0
-1 10 5 0
-1 -11 -7 0
3 -8 6 0
1 3 5 0
8 -2 10 0
4 8 -6 0
7 -8 -4 0
9 5 4 0
-10 5 -6 0
-1 10 9 0
-11 3 -5 0
